NAME: nw3
TYPE: TSP
COMMENT: 130 city problem (Churritz)
DIMENSION: 130
EDGE_WEIGHT_TYPE: EUC_2D
NODE_COORD_SECTION
 1 38.24 20.42
 2 39.57 26.15
 3 40.56 25.32
 4 36.26 23.12
 5 33.48 10.54
 6 36.08 -5.21
 7 38.47 15.13
EOF
